QuantityOfClients = 5;
ClientsDemand = [0,2,2,2,2,2];
Distance = [
[0,2907,27207,31616,34121,14893],
[2907,0,29450,31954,12726,2913],
[27207,29450,0,11408,13120,32763],
[31616,31954,11408,0,19368,39011],
[34121,12726,13120,19368,0,41752],
[14893,2913,32763,39011,41752,0]
];
